Route #1: 9 37 21 18 3 2 35 24
Route #2: 39 19 26 27 38 4
Route #3: 8 13 22 31 15 5
Route #4: 7 16 20 40 10 23
Route #5: 30 36 12 32 17 14 29 1
Route #6: 28 11 34 33 6 25
Cost 829
Time 0.062227
Tempo = 0.07140680000884458